% =============================================================================
% Generated CLP Test Instance (v3.0 - Working Pattern Replication)
% =============================================================================
% Generator: AVISPA CLP Instance Generator v3.0.0 (Professional)
% Generated: 2026-04-20 20:16:05
%
% Instance Characteristics:
%   - Buses: 7
%   - Stations: 6
%   - Max stops per bus: 6
%   - Actual stops per bus: [6, 6, 6, 6, 6, 6, 6]
%   - Total energy consumption: 8077 (scaled ×10)
%   - Average per bus: 1154 (115.4 kWh)
%   - Usable capacity: 800 (80.0 kWh)
%
% Feasibility Analysis:
%   - Overconsumption factor: 1.44x
%   - Pattern: Each bus visits every station EXACTLY ONCE
%   - Route diversity: 5 distinct patterns (sequential, reverse, alternating, diagonal)
%   - Energy forcing: Designed to require strategic charging at intermediate stations
%
% All values scaled ×10 for integer arithmetic.
% Divide by 10 to get original units (kWh, minutes).
% =============================================================================

% --- Problem Dimensions ---
num_buses = 7;
num_stations = 6;

% --- Energy Parameters (CLP Model) ---
% All values scaled ×10 from kWh
Cmax = 1000;  % 100.0 kWh maximum capacity
Cmin = 200;  % 20.0 kWh minimum reserve
alpha = 100;  % 10.0 kWh/min charging rate

% --- Time and Schedule Parameters ---
% All values scaled ×10 from minutes
mu = 50;      % 5.0 min maximum delay
SM = 10;      % 1.0 min safety margin
psi = 10;     % 1.0 min minimum charging time
beta = 100;   % 10.0 min maximum charging time
M = 10000;      % Big-M constant

% --- Route Structure ---
max_stops = 6;
num_stops = [6,6,6,6,6,6,6];

% --- Station Sequence (st_bi) ---
% Maps each bus stop to a physical station ID (1-indexed)
% Station 1 is the depot (D=0, T=0)
st_bi = array2d(1..7, 1..6, [
  1,2,3,4,5,6,  % Bus 1
  6,5,4,3,2,1,  % Bus 2
  1,3,5,2,4,6,  % Bus 3
  2,4,6,1,3,5,  % Bus 4
  1,2,3,4,5,6,  % Bus 5
  1,2,3,4,5,6,  % Bus 6
  6,5,4,3,2,1  % Bus 7
]);

% --- Energy Consumption (D) ---
% Energy consumed between stops (scaled ×10, divide by 10 for kWh)
D = array2d(1..7, 1..6, [
  0,240,248,249,241,246,  % Bus 1
  0,231,229,225,224,230,  % Bus 2
  0,215,206,210,214,211,  % Bus 3
  0,236,232,239,240,239,  % Bus 4
  0,232,235,239,233,237,  % Bus 5
  0,230,233,230,231,237,  % Bus 6
  0,226,229,230,227,223  % Bus 7
]);

% --- Travel Time (T) ---
% Time between stops (scaled ×10, divide by 10 for minutes)
T = array2d(1..7, 1..6, [
  0,145,127,122,137,139,  % Bus 1
  0,108,150,107,135,134,  % Bus 2
  0,114,146,146,144,133,  % Bus 3
  0,128,145,138,117,123,  % Bus 4
  0,132,104,137,115,139,  % Bus 5
  0,147,138,107,110,100,  % Bus 6
  0,150,112,147,100,102  % Bus 7
]);

% --- Timetable (tau_bi) ---
% Scheduled arrival times (scaled ×10, divide by 10 for minutes since 00:00)
% Buses are staggered to reduce station conflicts
tau_bi = array2d(1..7, 1..6, [
  5,150,277,399,536,675,  % Bus 1
  63,171,321,428,563,697,  % Bus 2
  101,215,361,507,651,784,  % Bus 3
  163,291,436,574,691,814,  % Bus 4
  201,333,437,574,689,828,  % Bus 5
  259,406,544,651,761,861,  % Bus 6
  309,459,571,718,818,920  % Bus 7
]);
